0000000000000000
0011100000011000
0001110000011000
0000111000011000
0000111100011000
0000110110011000
0000110111011000
0000110011011000
0000110001111000
0000110000111000
0000110000111000
0000110000011100
0000110000001110
0000000000000000
0000000000000000
0000000000000000
